c *********************************
c * Circuit generated by BenCGen
c *
c * CarryLookaheadBlock_27_27_27_InOutT
c *
c * Ports with 1 gate(s): 2
c * Ports with 2 gate(s): 116
c * Ports with 3 gate(s): 27
c * Ports with 4 gate(s): 20
c * Ports with 5 gate(s): 12
c * Total gates: 177
c *********************************
p cnf 231 686
1 84 0
-1 -84 0
1 -83 0
84 -83 0
-1 -84 83 0
1 28 -85 0
-1 28 85 0
1 -28 85 0
-1 -28 -85 0
1 -112 0
28 -112 0
-1 -28 112 0
2 29 -86 0
-2 29 86 0
2 -29 86 0
-2 -29 -86 0
2 -113 0
29 -113 0
-2 -29 113 0
3 30 -87 0
-3 30 87 0
3 -30 87 0
-3 -30 -87 0
3 -114 0
30 -114 0
-3 -30 114 0
4 31 -88 0
-4 31 88 0
4 -31 88 0
-4 -31 -88 0
4 -115 0
31 -115 0
-4 -31 115 0
5 32 -89 0
-5 32 89 0
5 -32 89 0
-5 -32 -89 0
5 -116 0
32 -116 0
-5 -32 116 0
6 33 -90 0
-6 33 90 0
6 -33 90 0
-6 -33 -90 0
6 -117 0
33 -117 0
-6 -33 117 0
7 34 -91 0
-7 34 91 0
7 -34 91 0
-7 -34 -91 0
7 -118 0
34 -118 0
-7 -34 118 0
8 35 -92 0
-8 35 92 0
8 -35 92 0
-8 -35 -92 0
8 -119 0
35 -119 0
-8 -35 119 0
9 36 -93 0
-9 36 93 0
9 -36 93 0
-9 -36 -93 0
9 -120 0
36 -120 0
-9 -36 120 0
10 37 -94 0
-10 37 94 0
10 -37 94 0
-10 -37 -94 0
10 -121 0
37 -121 0
-10 -37 121 0
11 38 -95 0
-11 38 95 0
11 -38 95 0
-11 -38 -95 0
11 -122 0
38 -122 0
-11 -38 122 0
12 39 -96 0
-12 39 96 0
12 -39 96 0
-12 -39 -96 0
12 -123 0
39 -123 0
-12 -39 123 0
13 40 -97 0
-13 40 97 0
13 -40 97 0
-13 -40 -97 0
13 -124 0
40 -124 0
-13 -40 124 0
14 41 -98 0
-14 41 98 0
14 -41 98 0
-14 -41 -98 0
14 -125 0
41 -125 0
-14 -41 125 0
15 42 -99 0
-15 42 99 0
15 -42 99 0
-15 -42 -99 0
15 -126 0
42 -126 0
-15 -42 126 0
16 43 -100 0
-16 43 100 0
16 -43 100 0
-16 -43 -100 0
16 -127 0
43 -127 0
-16 -43 127 0
17 44 -101 0
-17 44 101 0
17 -44 101 0
-17 -44 -101 0
17 -128 0
44 -128 0
-17 -44 128 0
18 45 -102 0
-18 45 102 0
18 -45 102 0
-18 -45 -102 0
18 -129 0
45 -129 0
-18 -45 129 0
19 46 -103 0
-19 46 103 0
19 -46 103 0
-19 -46 -103 0
19 -130 0
46 -130 0
-19 -46 130 0
20 47 -104 0
-20 47 104 0
20 -47 104 0
-20 -47 -104 0
20 -131 0
47 -131 0
-20 -47 131 0
21 48 -105 0
-21 48 105 0
21 -48 105 0
-21 -48 -105 0
21 -132 0
48 -132 0
-21 -48 132 0
22 49 -106 0
-22 49 106 0
22 -49 106 0
-22 -49 -106 0
22 -133 0
49 -133 0
-22 -49 133 0
23 50 -107 0
-23 50 107 0
23 -50 107 0
-23 -50 -107 0
23 -134 0
50 -134 0
-23 -50 134 0
24 51 -108 0
-24 51 108 0
24 -51 108 0
-24 -51 -108 0
24 -135 0
51 -135 0
-24 -51 135 0
25 52 -109 0
-25 52 109 0
25 -52 109 0
-25 -52 -109 0
25 -136 0
52 -136 0
-25 -52 136 0
26 53 -110 0
-26 53 110 0
26 -53 110 0
-26 -53 -110 0
26 -137 0
53 -137 0
-26 -53 137 0
27 54 -111 0
-27 54 111 0
27 -54 111 0
-27 -54 -111 0
27 -138 0
54 -138 0
-27 -54 138 0
83 -166 0
85 -166 0
-83 -85 166 0
83 -167 0
85 -167 0
86 -167 0
-83 -85 -86 167 0
112 -168 0
86 -168 0
-112 -86 168 0
83 -169 0
85 -169 0
86 -169 0
87 -169 0
-83 -85 -86 -87 169 0
112 -170 0
86 -170 0
87 -170 0
-112 -86 -87 170 0
113 -171 0
87 -171 0
-113 -87 171 0
83 -172 0
85 -172 0
86 -172 0
87 -172 0
88 -172 0
-83 -85 -86 -87 -88 172 0
112 -173 0
86 -173 0
87 -173 0
88 -173 0
-112 -86 -87 -88 173 0
113 -174 0
87 -174 0
88 -174 0
-113 -87 -88 174 0
114 -175 0
88 -175 0
-114 -88 175 0
-112 139 0
-166 139 0
112 166 -139 0
-113 140 0
-167 140 0
-168 140 0
113 167 168 -140 0
-114 141 0
-169 141 0
-170 141 0
-171 141 0
114 169 170 171 -141 0
-115 142 0
-172 142 0
-173 142 0
-174 142 0
-175 142 0
115 172 173 174 175 -142 0
142 -176 0
89 -176 0
-142 -89 176 0
142 -177 0
89 -177 0
90 -177 0
-142 -89 -90 177 0
116 -178 0
90 -178 0
-116 -90 178 0
142 -179 0
89 -179 0
90 -179 0
91 -179 0
-142 -89 -90 -91 179 0
116 -180 0
90 -180 0
91 -180 0
-116 -90 -91 180 0
117 -181 0
91 -181 0
-117 -91 181 0
142 -182 0
89 -182 0
90 -182 0
91 -182 0
92 -182 0
-142 -89 -90 -91 -92 182 0
116 -183 0
90 -183 0
91 -183 0
92 -183 0
-116 -90 -91 -92 183 0
117 -184 0
91 -184 0
92 -184 0
-117 -91 -92 184 0
118 -185 0
92 -185 0
-118 -92 185 0
-116 143 0
-176 143 0
116 176 -143 0
-117 144 0
-177 144 0
-178 144 0
117 177 178 -144 0
-118 145 0
-179 145 0
-180 145 0
-181 145 0
118 179 180 181 -145 0
-119 146 0
-182 146 0
-183 146 0
-184 146 0
-185 146 0
119 182 183 184 185 -146 0
146 -186 0
93 -186 0
-146 -93 186 0
146 -187 0
93 -187 0
94 -187 0
-146 -93 -94 187 0
120 -188 0
94 -188 0
-120 -94 188 0
146 -189 0
93 -189 0
94 -189 0
95 -189 0
-146 -93 -94 -95 189 0
120 -190 0
94 -190 0
95 -190 0
-120 -94 -95 190 0
121 -191 0
95 -191 0
-121 -95 191 0
146 -192 0
93 -192 0
94 -192 0
95 -192 0
96 -192 0
-146 -93 -94 -95 -96 192 0
120 -193 0
94 -193 0
95 -193 0
96 -193 0
-120 -94 -95 -96 193 0
121 -194 0
95 -194 0
96 -194 0
-121 -95 -96 194 0
122 -195 0
96 -195 0
-122 -96 195 0
-120 147 0
-186 147 0
120 186 -147 0
-121 148 0
-187 148 0
-188 148 0
121 187 188 -148 0
-122 149 0
-189 149 0
-190 149 0
-191 149 0
122 189 190 191 -149 0
-123 150 0
-192 150 0
-193 150 0
-194 150 0
-195 150 0
123 192 193 194 195 -150 0
150 -196 0
97 -196 0
-150 -97 196 0
150 -197 0
97 -197 0
98 -197 0
-150 -97 -98 197 0
124 -198 0
98 -198 0
-124 -98 198 0
150 -199 0
97 -199 0
98 -199 0
99 -199 0
-150 -97 -98 -99 199 0
124 -200 0
98 -200 0
99 -200 0
-124 -98 -99 200 0
125 -201 0
99 -201 0
-125 -99 201 0
150 -202 0
97 -202 0
98 -202 0
99 -202 0
100 -202 0
-150 -97 -98 -99 -100 202 0
124 -203 0
98 -203 0
99 -203 0
100 -203 0
-124 -98 -99 -100 203 0
125 -204 0
99 -204 0
100 -204 0
-125 -99 -100 204 0
126 -205 0
100 -205 0
-126 -100 205 0
-124 151 0
-196 151 0
124 196 -151 0
-125 152 0
-197 152 0
-198 152 0
125 197 198 -152 0
-126 153 0
-199 153 0
-200 153 0
-201 153 0
126 199 200 201 -153 0
-127 154 0
-202 154 0
-203 154 0
-204 154 0
-205 154 0
127 202 203 204 205 -154 0
154 -206 0
101 -206 0
-154 -101 206 0
154 -207 0
101 -207 0
102 -207 0
-154 -101 -102 207 0
128 -208 0
102 -208 0
-128 -102 208 0
154 -209 0
101 -209 0
102 -209 0
103 -209 0
-154 -101 -102 -103 209 0
128 -210 0
102 -210 0
103 -210 0
-128 -102 -103 210 0
129 -211 0
103 -211 0
-129 -103 211 0
154 -212 0
101 -212 0
102 -212 0
103 -212 0
104 -212 0
-154 -101 -102 -103 -104 212 0
128 -213 0
102 -213 0
103 -213 0
104 -213 0
-128 -102 -103 -104 213 0
129 -214 0
103 -214 0
104 -214 0
-129 -103 -104 214 0
130 -215 0
104 -215 0
-130 -104 215 0
-128 155 0
-206 155 0
128 206 -155 0
-129 156 0
-207 156 0
-208 156 0
129 207 208 -156 0
-130 157 0
-209 157 0
-210 157 0
-211 157 0
130 209 210 211 -157 0
-131 158 0
-212 158 0
-213 158 0
-214 158 0
-215 158 0
131 212 213 214 215 -158 0
158 -216 0
105 -216 0
-158 -105 216 0
158 -217 0
105 -217 0
106 -217 0
-158 -105 -106 217 0
132 -218 0
106 -218 0
-132 -106 218 0
158 -219 0
105 -219 0
106 -219 0
107 -219 0
-158 -105 -106 -107 219 0
132 -220 0
106 -220 0
107 -220 0
-132 -106 -107 220 0
133 -221 0
107 -221 0
-133 -107 221 0
158 -222 0
105 -222 0
106 -222 0
107 -222 0
108 -222 0
-158 -105 -106 -107 -108 222 0
132 -223 0
106 -223 0
107 -223 0
108 -223 0
-132 -106 -107 -108 223 0
133 -224 0
107 -224 0
108 -224 0
-133 -107 -108 224 0
134 -225 0
108 -225 0
-134 -108 225 0
-132 159 0
-216 159 0
132 216 -159 0
-133 160 0
-217 160 0
-218 160 0
133 217 218 -160 0
-134 161 0
-219 161 0
-220 161 0
-221 161 0
134 219 220 221 -161 0
-135 162 0
-222 162 0
-223 162 0
-224 162 0
-225 162 0
135 222 223 224 225 -162 0
162 -226 0
109 -226 0
-162 -109 226 0
162 -227 0
109 -227 0
110 -227 0
-162 -109 -110 227 0
136 -228 0
110 -228 0
-136 -110 228 0
162 -229 0
109 -229 0
110 -229 0
111 -229 0
-162 -109 -110 -111 229 0
136 -230 0
110 -230 0
111 -230 0
-136 -110 -111 230 0
137 -231 0
111 -231 0
-137 -111 231 0
-136 163 0
-226 163 0
136 226 -163 0
-137 164 0
-227 164 0
-228 164 0
137 227 228 -164 0
-138 165 0
-229 165 0
-230 165 0
-231 165 0
138 229 230 231 -165 0
85 83 -55 0
-85 83 55 0
85 -83 55 0
-85 -83 -55 0
86 139 -56 0
-86 139 56 0
86 -139 56 0
-86 -139 -56 0
87 140 -57 0
-87 140 57 0
87 -140 57 0
-87 -140 -57 0
88 141 -58 0
-88 141 58 0
88 -141 58 0
-88 -141 -58 0
89 142 -59 0
-89 142 59 0
89 -142 59 0
-89 -142 -59 0
90 143 -60 0
-90 143 60 0
90 -143 60 0
-90 -143 -60 0
91 144 -61 0
-91 144 61 0
91 -144 61 0
-91 -144 -61 0
92 145 -62 0
-92 145 62 0
92 -145 62 0
-92 -145 -62 0
93 146 -63 0
-93 146 63 0
93 -146 63 0
-93 -146 -63 0
94 147 -64 0
-94 147 64 0
94 -147 64 0
-94 -147 -64 0
95 148 -65 0
-95 148 65 0
95 -148 65 0
-95 -148 -65 0
96 149 -66 0
-96 149 66 0
96 -149 66 0
-96 -149 -66 0
97 150 -67 0
-97 150 67 0
97 -150 67 0
-97 -150 -67 0
98 151 -68 0
-98 151 68 0
98 -151 68 0
-98 -151 -68 0
99 152 -69 0
-99 152 69 0
99 -152 69 0
-99 -152 -69 0
100 153 -70 0
-100 153 70 0
100 -153 70 0
-100 -153 -70 0
101 154 -71 0
-101 154 71 0
101 -154 71 0
-101 -154 -71 0
102 155 -72 0
-102 155 72 0
102 -155 72 0
-102 -155 -72 0
103 156 -73 0
-103 156 73 0
103 -156 73 0
-103 -156 -73 0
104 157 -74 0
-104 157 74 0
104 -157 74 0
-104 -157 -74 0
105 158 -75 0
-105 158 75 0
105 -158 75 0
-105 -158 -75 0
106 159 -76 0
-106 159 76 0
106 -159 76 0
-106 -159 -76 0
107 160 -77 0
-107 160 77 0
107 -160 77 0
-107 -160 -77 0
108 161 -78 0
-108 161 78 0
108 -161 78 0
-108 -161 -78 0
109 162 -79 0
-109 162 79 0
109 -162 79 0
-109 -162 -79 0
110 163 -80 0
-110 163 80 0
110 -163 80 0
-110 -163 -80 0
111 164 -81 0
-111 164 81 0
111 -164 81 0
-111 -164 -81 0
165 -82 0
-165 82 0
